7
0, 1040, 296, 674, 460, 691, 1029
1040, 0, 902, 381, 593, 553, 158
296, 902, 0, 521, 323, 724, 935
674, 381, 521, 0, 215, 430, 424
460, 593, 323, 215, 0, 449, 613
691, 553, 724, 430, 449, 0, 452
1029, 158, 935, 424, 613, 452, 0
